/* Objective function */
min: +C26 +C27 +C28 +C29 +C30;

/* Constraints */
+21 C1 +C2 +31 C3 +61 C4 +27 C5 -62 C26 <= 0;
+21 C6 +C7 +31 C8 +61 C9 +27 C10 -62 C27 <= 0;
+21 C11 +C12 +31 C13 +61 C14 +27 C15 -62 C28 <= 0;
+21 C16 +C17 +31 C18 +61 C19 +27 C20 -62 C29 <= 0;
+21 C21 +C22 +31 C23 +61 C24 +27 C25 -62 C30 <= 0;
+90 C1 +116 C2 +82 C3 +37 C4 +7 C5 -162 C26 <= 0;
+90 C6 +116 C7 +82 C8 +37 C9 +7 C10 -162 C27 <= 0;
+90 C11 +116 C12 +82 C13 +37 C14 +7 C15 -162 C28 <= 0;
+90 C16 +116 C17 +82 C18 +37 C19 +7 C20 -162 C29 <= 0;
+90 C21 +116 C22 +82 C23 +37 C24 +7 C25 -162 C30 <= 0;
+C1 +C6 +C11 +C16 +C21 = 1;
+C2 +C7 +C12 +C17 +C22 = 1;
+C3 +C8 +C13 +C18 +C23 = 1;
+C4 +C9 +C14 +C19 +C24 = 1;
+C5 +C10 +C15 +C20 +C25 = 1;

/* Variable bounds */
C1 <= 1;
C2 <= 1;
C3 <= 1;
C4 <= 1;
C5 <= 1;
C6 <= 1;
C7 <= 1;
C8 <= 1;
C9 <= 1;
C10 <= 1;
C11 <= 1;
C12 <= 1;
C13 <= 1;
C14 <= 1;
C15 <= 1;
C16 <= 1;
C17 <= 1;
C18 <= 1;
C19 <= 1;
C20 <= 1;
C21 <= 1;
C22 <= 1;
C23 <= 1;
C24 <= 1;
C25 <= 1;
C26 <= 1;
C27 <= 1;
C28 <= 1;
C29 <= 1;
C30 <= 1;

/* Integer definitions */
int C1,C2,C3,C4,C5,C6,C7,C8,C9,C10,C11,C12,C13,C14,C15,C16,C17,C18,C19,C20,C21,C22,C23,C24,C25,C26,C27,C28,C29,C30;
